(set-info :source |printed by MathSAT|)
(declare-fun call_mesi.shared_me () Int)
(declare-fun call_mesi.ite32 () Int)
(declare-fun env () Bool)
(declare-fun call_mesi.ite3 () Int)
(declare-fun call_mesi.ite8 () Int)
(declare-fun call_mesi.ite17 () Int)
(declare-fun call_Sofar.Sofar () Bool)
(declare-fun call_mesi.ite13 () Int)
(declare-fun call_mesi.ite9 () Int)
(declare-fun call_mesi.ite31 () Int)
(declare-fun call_mesi.ite22 () Int)
(declare-fun exclusive_me () Int)
(declare-fun call_mesi.flby2 () Int)
(declare-fun param_etat_me3 () Bool)
(declare-fun call_mesi.ite14 () Int)
(declare-fun call_mesi.modified_me () Int)
(declare-fun call_mesi.ite23 () Int)
(declare-fun call_mesi.garde_me4 () Bool)
(declare-fun call_mesi.ite21 () Int)
(declare-fun call_mesi.garde_me1 () Bool)
(declare-fun call_mesi.ite () Int)
(declare-fun call_mesi.invalid_me () Int)
(declare-fun call_mesi.ite12 () Int)
(declare-fun call_mesi.ite4 () Int)
(declare-fun param_etat_me1 () Bool)
(declare-fun call_mesi.flby () Int)
(declare-fun call_mesi.ite25 () Int)
(declare-fun call_mesi.ite26 () Int)
(declare-fun call_mesi.ite20 () Int)
(declare-fun call_mesi.garde_me3 () Bool)
(declare-fun call_mesi.ite5 () Int)
(declare-fun call_mesi.ite2 () Int)
(declare-fun call_mesi.ite30 () Int)
(declare-fun shared_me () Int)
(declare-fun call_mesi.exclusive_me () Int)
(declare-fun call_mesi.flby3 () Int)
(declare-fun call_mesi.ite27 () Int)
(declare-fun invalid_me () Int)
(declare-fun call_mesi.ite24 () Int)
(declare-fun call_mesi.ite28 () Int)
(declare-fun call_mesi.ite18 () Int)
(declare-fun param_etat_me4 () Bool)
(declare-fun call_mesi.ite7 () Int)
(declare-fun _OK_ () Bool)
(declare-fun param_etat_me2 () Bool)
(declare-fun call_mesi.ite6 () Int)
(declare-fun call_mesi.flby4 () Int)
(declare-fun call_mesi.ite16 () Int)
(declare-fun call_Sofar.flby () Bool)
(declare-fun call_mesi.ite10 () Int)
(declare-fun modified_me () Int)
(declare-fun call_mesi.ite19 () Int)
(declare-fun call_excludes4.excludes () Bool)
(declare-fun call_mesi.ite11 () Int)
(declare-fun call_mesi.ite29 () Int)
(declare-fun call_mesi.ite15 () Int)
(define-fun .def_798 () Bool (= call_Sofar.flby call_Sofar.Sofar))
(define-fun .def_793 () Bool (and param_etat_me4 param_etat_me3))
(define-fun .def_788 () Bool (and param_etat_me1 param_etat_me2))
(define-fun .def_787 () Bool (and param_etat_me3 param_etat_me1))
(define-fun .def_789 () Bool (or .def_787 .def_788))
(define-fun .def_786 () Bool (and param_etat_me4 param_etat_me1))
(define-fun .def_790 () Bool (or .def_786 .def_789))
(define-fun .def_785 () Bool (and param_etat_me3 param_etat_me2))
(define-fun .def_791 () Bool (or .def_785 .def_790))
(define-fun .def_784 () Bool (and param_etat_me4 param_etat_me2))
(define-fun .def_792 () Bool (or .def_784 .def_791))
(define-fun .def_794 () Bool (or .def_792 .def_793))
(define-fun .def_795 () Bool (not .def_794))
(define-fun .def_796 () Bool (= call_excludes4.excludes .def_795))
(define-fun .def_782 () Bool (= call_mesi.flby4 call_mesi.invalid_me))
(define-fun .def_780 () Bool (= call_mesi.flby3 call_mesi.shared_me))
(define-fun .def_778 () Bool (= call_mesi.flby2 call_mesi.exclusive_me))
(define-fun .def_776 () Bool (= call_mesi.flby call_mesi.modified_me))
(define-fun .def_772 () Bool (= call_mesi.ite30 call_mesi.ite31))
(define-fun .def_773 () Bool (or param_etat_me2 .def_772))
(define-fun .def_769 () Bool (= call_mesi.ite31 call_mesi.ite26))
(define-fun .def_751 () Bool (not param_etat_me2))
(define-fun .def_770 () Bool (or .def_751 .def_769))
(define-fun .def_765 () Bool (= call_mesi.ite22 call_mesi.ite23))
(define-fun .def_766 () Bool (or param_etat_me2 .def_765))
(define-fun .def_762 () Bool (= call_mesi.ite23 call_mesi.ite18))
(define-fun .def_763 () Bool (or .def_751 .def_762))
(define-fun .def_758 () Bool (= call_mesi.ite14 call_mesi.ite15))
(define-fun .def_759 () Bool (or param_etat_me2 .def_758))
(define-fun .def_755 () Bool (= call_mesi.ite15 call_mesi.ite10))
(define-fun .def_756 () Bool (or .def_751 .def_755))
(define-fun .def_750 () Bool (= call_mesi.ite7 call_mesi.ite2))
(define-fun .def_752 () Bool (or .def_750 .def_751))
(define-fun .def_746 () Bool (= call_mesi.ite6 call_mesi.ite7))
(define-fun .def_748 () Bool (or .def_746 param_etat_me2))
(define-fun .def_753 () Bool (and .def_748 .def_752))
(define-fun .def_757 () Bool (and .def_753 .def_756))
(define-fun .def_760 () Bool (and .def_757 .def_759))
(define-fun .def_764 () Bool (and .def_760 .def_763))
(define-fun .def_767 () Bool (and .def_764 .def_766))
(define-fun .def_771 () Bool (and .def_767 .def_770))
(define-fun .def_774 () Bool (and .def_771 .def_773))
(define-fun .def_742 () Bool (= call_mesi.ite32 call_mesi.ite31))
(define-fun .def_743 () Bool (or param_etat_me1 .def_742))
(define-fun .def_738 () Bool (= call_mesi.ite25 call_mesi.ite32))
(define-fun .def_716 () Bool (not param_etat_me1))
(define-fun .def_739 () Bool (or .def_716 .def_738))
(define-fun .def_733 () Bool (= call_mesi.ite24 call_mesi.ite23))
(define-fun .def_734 () Bool (or param_etat_me1 .def_733))
(define-fun .def_729 () Bool (= call_mesi.ite17 call_mesi.ite24))
(define-fun .def_730 () Bool (or .def_716 .def_729))
(define-fun .def_724 () Bool (= call_mesi.ite16 call_mesi.ite15))
(define-fun .def_725 () Bool (or param_etat_me1 .def_724))
(define-fun .def_720 () Bool (= call_mesi.ite9 call_mesi.ite16))
(define-fun .def_721 () Bool (or .def_716 .def_720))
(define-fun .def_715 () Bool (= call_mesi.ite call_mesi.ite8))
(define-fun .def_717 () Bool (or .def_715 .def_716))
(define-fun .def_712 () Bool (= call_mesi.ite8 call_mesi.ite7))
(define-fun .def_714 () Bool (or .def_712 param_etat_me1))
(define-fun .def_718 () Bool (and .def_714 .def_717))
(define-fun .def_722 () Bool (and .def_718 .def_721))
(define-fun .def_726 () Bool (and .def_722 .def_725))
(define-fun .def_731 () Bool (and .def_726 .def_730))
(define-fun .def_735 () Bool (and .def_731 .def_734))
(define-fun .def_740 () Bool (and .def_735 .def_739))
(define-fun .def_744 () Bool (and .def_740 .def_743))
(define-fun .def_708 () Bool (= env call_Sofar.Sofar))
(define-fun .def_705 () Bool (= invalid_me call_mesi.invalid_me))
(define-fun .def_701 () Bool (= shared_me call_mesi.shared_me))
(define-fun .def_698 () Bool (= exclusive_me call_mesi.exclusive_me))
(define-fun .def_694 () Bool (= modified_me call_mesi.modified_me))
(define-fun .def_688 () Bool (= call_mesi.ite29 call_mesi.ite30))
(define-fun .def_689 () Bool (or param_etat_me3 .def_688))
(define-fun .def_685 () Bool (= call_mesi.ite27 call_mesi.ite30))
(define-fun .def_666 () Bool (not param_etat_me3))
(define-fun .def_686 () Bool (or .def_666 .def_685))
(define-fun .def_680 () Bool (= call_mesi.ite21 call_mesi.ite22))
(define-fun .def_681 () Bool (or param_etat_me3 .def_680))
(define-fun .def_677 () Bool (= call_mesi.ite19 call_mesi.ite22))
(define-fun .def_678 () Bool (or .def_666 .def_677))
(define-fun .def_673 () Bool (= call_mesi.ite13 call_mesi.ite14))
(define-fun .def_674 () Bool (or param_etat_me3 .def_673))
(define-fun .def_670 () Bool (= call_mesi.ite11 call_mesi.ite14))
(define-fun .def_671 () Bool (or .def_666 .def_670))
(define-fun .def_665 () Bool (= call_mesi.ite3 call_mesi.ite6))
(define-fun .def_667 () Bool (or .def_665 .def_666))
(define-fun .def_662 () Bool (= call_mesi.ite5 call_mesi.ite6))
(define-fun .def_664 () Bool (or .def_662 param_etat_me3))
(define-fun .def_668 () Bool (and .def_664 .def_667))
(define-fun .def_672 () Bool (and .def_668 .def_671))
(define-fun .def_675 () Bool (and .def_672 .def_674))
(define-fun .def_679 () Bool (and .def_675 .def_678))
(define-fun .def_682 () Bool (and .def_679 .def_681))
(define-fun .def_687 () Bool (and .def_682 .def_686))
(define-fun .def_690 () Bool (and .def_687 .def_689))
(define-fun .def_658 () Bool (<= 0 shared_me))
(define-fun .def_656 () Bool (not env))
(define-fun .def_659 () Bool (or .def_656 .def_658))
(define-fun .def_660 () Bool (= _OK_ .def_659))
(define-fun .def_691 () Bool (and .def_660 .def_690))
(define-fun .def_695 () Bool (and .def_691 .def_694))
(define-fun .def_699 () Bool (and .def_695 .def_698))
(define-fun .def_702 () Bool (and .def_699 .def_701))
(define-fun .def_706 () Bool (and .def_702 .def_705))
(define-fun .def_709 () Bool (and .def_706 .def_708))
(define-fun .def_745 () Bool (and .def_709 .def_744))
(define-fun .def_775 () Bool (and .def_745 .def_774))
(define-fun .def_777 () Bool (and .def_775 .def_776))
(define-fun .def_779 () Bool (and .def_777 .def_778))
(define-fun .def_781 () Bool (and .def_779 .def_780))
(define-fun .def_783 () Bool (and .def_781 .def_782))
(define-fun .def_797 () Bool (and .def_783 .def_796))
(define-fun .def_799 () Bool (and .def_797 .def_798))
(define-fun .def_652 () Bool (= call_excludes4.excludes call_Sofar.flby))
(define-fun .def_648 () Bool (= call_mesi.flby4 3))
(define-fun .def_645 () Bool (= call_mesi.flby3 0))
(define-fun .def_642 () Bool (= call_mesi.flby2 0))
(define-fun .def_639 () Bool (= call_mesi.flby 0))
(define-fun .def_634 () Bool (= call_mesi.ite20 0))
(define-fun .def_629 () Bool (not call_mesi.garde_me4))
(define-fun .def_635 () Bool (or .def_629 .def_634))
(define-fun .def_631 () Bool (= call_mesi.ite4 0))
(define-fun .def_632 () Bool (or .def_629 .def_631))
(define-fun .def_627 () Bool (= call_mesi.ite12 1))
(define-fun .def_630 () Bool (or .def_627 .def_629))
(define-fun .def_633 () Bool (and .def_630 .def_632))
(define-fun .def_636 () Bool (and .def_633 .def_635))
(define-fun .def_623 () Bool (= call_mesi.ite19 0))
(define-fun .def_616 () Bool (not call_mesi.garde_me3))
(define-fun .def_624 () Bool (or .def_616 .def_623))
(define-fun .def_619 () Bool (= call_mesi.ite3 0))
(define-fun .def_620 () Bool (or .def_616 .def_619))
(define-fun .def_614 () Bool (= call_mesi.ite11 1))
(define-fun .def_617 () Bool (or .def_614 .def_616))
(define-fun .def_621 () Bool (and .def_617 .def_620))
(define-fun .def_625 () Bool (and .def_621 .def_624))
(define-fun .def_609 () Bool (= call_mesi.ite 0))
(define-fun .def_606 () Bool (not call_mesi.garde_me1))
(define-fun .def_610 () Bool (or .def_606 .def_609))
(define-fun .def_604 () Bool (= call_mesi.ite9 0))
(define-fun .def_607 () Bool (or .def_604 .def_606))
(define-fun .def_611 () Bool (and .def_607 .def_610))
(define-fun .def_600 () Bool (= call_mesi.ite28 call_mesi.ite29))
(define-fun .def_586 () Bool (not param_etat_me4))
(define-fun .def_601 () Bool (or .def_586 .def_600))
(define-fun .def_595 () Bool (= call_mesi.ite20 call_mesi.ite21))
(define-fun .def_596 () Bool (or .def_586 .def_595))
(define-fun .def_590 () Bool (= call_mesi.ite4 call_mesi.ite5))
(define-fun .def_591 () Bool (or .def_586 .def_590))
(define-fun .def_584 () Bool (= call_mesi.ite12 call_mesi.ite13))
(define-fun .def_587 () Bool (or .def_584 .def_586))
(define-fun .def_592 () Bool (and .def_587 .def_591))
(define-fun .def_597 () Bool (and .def_592 .def_596))
(define-fun .def_602 () Bool (and .def_597 .def_601))
(define-fun .def_612 () Bool (and .def_602 .def_611))
(define-fun .def_626 () Bool (and .def_612 .def_625))
(define-fun .def_637 () Bool (and .def_626 .def_636))
(define-fun .def_640 () Bool (and .def_637 .def_639))
(define-fun .def_643 () Bool (and .def_640 .def_642))
(define-fun .def_646 () Bool (and .def_643 .def_645))
(define-fun .def_649 () Bool (and .def_646 .def_648))
(define-fun .def_653 () Bool (and .def_649 .def_652))
(define-fun .def_800 () Bool (and .def_653 .def_799))
(assert .def_800)
